db/data/7954376429974591581030422631516769.z3.out
sat
-------------------
552.040468363
